certificates/rado_a5_c192_N38.cnf
c Rad2 upper bound instance: x1 + 5*x2 - x3 = 192, interval [1,38]
p cnf 38 296
1 3 38 0
-1 -3 -38 0
2 4 38 0
-2 -4 -38 0
3 5 38 0
-3 -5 -38 0
4 6 38 0
-4 -6 -38 0
5 7 38 0
-5 -7 -38 0
1 8 37 0
-1 -8 -37 0
6 8 38 0
-6 -8 -38 0
2 9 37 0
-2 -9 -37 0
7 9 38 0
-7 -9 -38 0
3 10 37 0
-3 -10 -37 0
8 10 38 0
-8 -10 -38 0
4 11 37 0
-4 -11 -37 0
9 11 38 0
-9 -11 -38 0
5 12 37 0
-5 -12 -37 0
10 12 38 0
-10 -12 -38 0
1 13 36 0
-1 -13 -36 0
6 13 37 0
-6 -13 -37 0
11 13 38 0
-11 -13 -38 0
2 14 36 0
-2 -14 -36 0
7 14 37 0
-7 -14 -37 0
12 14 38 0
-12 -14 -38 0
3 15 36 0
-3 -15 -36 0
8 15 37 0
-8 -15 -37 0
13 15 38 0
-13 -15 -38 0
4 16 36 0
-4 -16 -36 0
9 16 37 0
-9 -16 -37 0
14 16 38 0
-14 -16 -38 0
5 17 36 0
-5 -17 -36 0
10 17 37 0
-10 -17 -37 0
15 17 38 0
-15 -17 -38 0
1 18 35 0
-1 -18 -35 0
6 18 36 0
-6 -18 -36 0
11 18 37 0
-11 -18 -37 0
16 18 38 0
-16 -18 -38 0
2 19 35 0
-2 -19 -35 0
7 19 36 0
-7 -19 -36 0
12 19 37 0
-12 -19 -37 0
17 19 38 0
-17 -19 -38 0
3 20 35 0
-3 -20 -35 0
8 20 36 0
-8 -20 -36 0
13 20 37 0
-13 -20 -37 0
18 20 38 0
-18 -20 -38 0
4 21 35 0
-4 -21 -35 0
9 21 36 0
-9 -21 -36 0
14 21 37 0
-14 -21 -37 0
19 21 38 0
-19 -21 -38 0
5 22 35 0
-5 -22 -35 0
10 22 36 0
-10 -22 -36 0
15 22 37 0
-15 -22 -37 0
20 22 38 0
-20 -22 -38 0
1 23 34 0
-1 -23 -34 0
6 23 35 0
-6 -23 -35 0
11 23 36 0
-11 -23 -36 0
16 23 37 0
-16 -23 -37 0
21 23 38 0
-21 -23 -38 0
2 24 34 0
-2 -24 -34 0
7 24 35 0
-7 -24 -35 0
12 24 36 0
-12 -24 -36 0
17 24 37 0
-17 -24 -37 0
22 24 38 0
-22 -24 -38 0
3 25 34 0
-3 -25 -34 0
8 25 35 0
-8 -25 -35 0
13 25 36 0
-13 -25 -36 0
18 25 37 0
-18 -25 -37 0
23 25 38 0
-23 -25 -38 0
4 26 34 0
-4 -26 -34 0
9 26 35 0
-9 -26 -35 0
14 26 36 0
-14 -26 -36 0
19 26 37 0
-19 -26 -37 0
24 26 38 0
-24 -26 -38 0
5 27 34 0
-5 -27 -34 0
10 27 35 0
-10 -27 -35 0
15 27 36 0
-15 -27 -36 0
20 27 37 0
-20 -27 -37 0
25 27 38 0
-25 -27 -38 0
1 28 33 0
-1 -28 -33 0
6 28 34 0
-6 -28 -34 0
11 28 35 0
-11 -28 -35 0
16 28 36 0
-16 -28 -36 0
21 28 37 0
-21 -28 -37 0
26 28 38 0
-26 -28 -38 0
2 29 33 0
-2 -29 -33 0
7 29 34 0
-7 -29 -34 0
12 29 35 0
-12 -29 -35 0
17 29 36 0
-17 -29 -36 0
22 29 37 0
-22 -29 -37 0
27 29 38 0
-27 -29 -38 0
3 30 33 0
-3 -30 -33 0
8 30 34 0
-8 -30 -34 0
13 30 35 0
-13 -30 -35 0
18 30 36 0
-18 -30 -36 0
23 30 37 0
-23 -30 -37 0
28 30 38 0
-28 -30 -38 0
4 31 33 0
-4 -31 -33 0
9 31 34 0
-9 -31 -34 0
14 31 35 0
-14 -31 -35 0
19 31 36 0
-19 -31 -36 0
24 31 37 0
-24 -31 -37 0
29 31 38 0
-29 -31 -38 0
5 32 33 0
-5 -32 -33 0
10 32 34 0
-10 -32 -34 0
15 32 35 0
-15 -32 -35 0
20 32 36 0
-20 -32 -36 0
25 32 37 0
-25 -32 -37 0
30 32 38 0
-30 -32 -38 0
1 32 33 0
-1 -32 -33 0
6 33 0
-6 -33 0
11 33 34 0
-11 -33 -34 0
16 33 35 0
-16 -33 -35 0
21 33 36 0
-21 -33 -36 0
26 33 37 0
-26 -33 -37 0
31 33 38 0
-31 -33 -38 0
2 32 34 0
-2 -32 -34 0
7 33 34 0
-7 -33 -34 0
12 34 0
-12 -34 0
17 34 35 0
-17 -34 -35 0
22 34 36 0
-22 -34 -36 0
27 34 37 0
-27 -34 -37 0
32 34 38 0
-32 -34 -38 0
3 32 35 0
-3 -32 -35 0
8 33 35 0
-8 -33 -35 0
13 34 35 0
-13 -34 -35 0
18 35 0
-18 -35 0
23 35 36 0
-23 -35 -36 0
28 35 37 0
-28 -35 -37 0
33 35 38 0
-33 -35 -38 0
4 32 36 0
-4 -32 -36 0
9 33 36 0
-9 -33 -36 0
14 34 36 0
-14 -34 -36 0
19 35 36 0
-19 -35 -36 0
24 36 0
-24 -36 0
29 36 37 0
-29 -36 -37 0
34 36 38 0
-34 -36 -38 0
5 32 37 0
-5 -32 -37 0
10 33 37 0
-10 -33 -37 0
15 34 37 0
-15 -34 -37 0
20 35 37 0
-20 -35 -37 0
25 36 37 0
-25 -36 -37 0
30 37 0
-30 -37 0
35 37 38 0
-35 -37 -38 0
1 31 38 0
-1 -31 -38 0
6 32 38 0
-6 -32 -38 0
11 33 38 0
-11 -33 -38 0
16 34 38 0
-16 -34 -38 0
21 35 38 0
-21 -35 -38 0
26 36 38 0
-26 -36 -38 0
31 37 38 0
-31 -37 -38 0
36 38 0
-36 -38 0
