certificates/rado_a5_c192_N38.drat
-38 0
36 0
-24 0
22 0
26 0
-10 0
-34 0
-14 0
8 0
12 0
32 0
16 0
2 0
-20 0
-4 0
-28 0
18 0
6 0
30 0
0
